93
300.0 410.0 
365.0 510.0 
300.0 410.0 
365.0 510.0 
340.0 390.0 
300.0 410.0 
365.0 510.0 
300.0 410.0 
335.0 420.0 
340.0 390.0 
300.0 410.0 
260.0 310.0 
340.0 390.0 
300.0 410.0 
335.0 470.0 
355.0 440.0 
365.0 480.0 
300.0 410.0 
335.0 420.0 
340.0 390.0 
300.0 410.0 
260.0 310.0 
365.0 480.0 
355.0 440.0 
300.0 410.0 
335.0 470.0 
340.0 390.0 
300.0 410.0 
335.0 420.0 
340.0 390.0 
300.0 410.0 
260.0 310.0 
260.0 310.0 
320.0 420.0 
365.0 510.0 
340.0 390.0 
300.0 410.0 
260.0 310.0 
260.0 310.0 
320.0 420.0 
335.0 470.0 
365.0 510.0 
340.0 390.0 
300.0 410.0 
260.0 310.0 
260.0 310.0 
320.0 420.0 
335.0 470.0 
365.0 510.0 
340.0 390.0 
300.0 410.0 
260.0 310.0 
320.0 420.0 
260.0 310.0 
365.0 510.0 
340.0 390.0 
300.0 410.0 
260.0 310.0 
260.0 310.0 
320.0 420.0 
335.0 470.0 
335.0 450.0 
365.0 480.0 
300.0 410.0 
260.0 310.0 
260.0 310.0 
320.0 420.0 
335.0 470.0 
365.0 510.0 
340.0 390.0 
300.0 410.0 
260.0 310.0 
260.0 310.0 
320.0 420.0 
335.0 450.0 
365.0 480.0 
300.0 410.0 
260.0 310.0 
260.0 310.0 
320.0 420.0 
365.0 510.0 
340.0 390.0 
300.0 410.0 
260.0 310.0 
260.0 310.0 
365.0 510.0 
340.0 390.0 
300.0 410.0 
260.0 310.0 
260.0 310.0 
320.0 420.0 
335.0 450.0 
365.0 480.0 

0 11 6 5 4 1 17 18 15 14 16 7 9 20 
0 11 6 5 4 3 19 18 17 15 14 16 7 9 10 12 20 
0 11 6 5 4 1 17 18 15 14 16 7 9 20 
0 11 6 5 4 3 19 18 17 15 14 16 7 9 10 12 20 
0 6 5 4 2 3 19 18 17 15 14 16 9 12 20 
0 11 6 5 4 1 17 18 15 14 16 7 9 20 
0 11 6 5 4 3 19 18 17 15 14 16 7 9 10 12 20 
0 11 6 5 4 1 17 18 15 14 16 7 9 20 
0 6 5 4 2 3 19 18 17 15 14 16 10 12 20 
0 6 5 4 2 3 19 18 17 15 14 16 9 12 20 
0 11 6 5 4 1 17 18 15 14 16 7 9 20 
0 11 6 5 4 2 3 19 17 15 14 9 20 
0 6 5 4 2 3 19 18 17 15 14 16 9 12 20 
0 11 6 5 4 1 17 18 15 14 16 7 9 20 
0 11 6 5 4 2 19 18 17 16 15 14 9 10 12 20 
0 6 5 4 2 3 19 18 17 16 15 14 9 10 12 20 
0 11 6 5 4 2 3 19 18 17 16 15 14 9 10 12 20 
0 11 6 5 4 1 17 18 15 14 16 7 9 20 
0 6 5 4 2 3 19 18 17 15 14 16 10 12 20 
0 6 5 4 2 3 19 18 17 15 14 16 9 12 20 
0 11 6 5 4 1 17 18 15 14 16 7 9 20 
0 11 6 5 4 2 3 19 17 15 14 9 20 
0 11 6 5 4 2 3 19 18 17 16 15 14 9 10 12 20 
0 6 5 4 2 3 19 18 17 16 15 14 9 10 12 20 
0 11 6 5 4 1 17 18 15 14 16 7 9 20 
0 11 6 5 4 2 19 18 17 16 15 14 9 10 12 20 
0 6 5 4 2 3 19 18 17 15 14 16 9 12 20 
0 11 6 5 4 1 17 18 15 14 16 7 9 20 
0 6 5 4 2 3 19 18 17 15 14 16 10 12 20 
0 6 5 4 2 3 19 18 17 15 14 16 9 12 20 
0 11 6 5 4 1 17 18 15 14 16 7 9 20 
0 6 5 4 2 3 19 17 15 14 9 12 20 
0 11 6 5 4 2 3 19 17 15 14 9 20 
0 11 6 5 4 2 19 18 17 15 14 16 9 12 20 
0 11 6 5 4 3 19 18 17 15 14 16 7 9 10 12 20 
0 6 5 4 2 3 19 18 17 15 14 16 9 12 20 
0 11 6 5 4 1 17 18 15 14 16 7 9 20 
0 6 5 4 2 3 19 17 15 14 9 12 20 
0 11 6 5 4 2 3 19 17 15 14 9 20 
0 11 6 5 4 2 19 18 17 15 14 16 9 12 20 
0 11 6 5 4 2 19 18 17 16 15 14 9 10 12 20 
0 11 6 5 4 3 19 18 17 15 14 16 7 9 10 12 20 
0 6 5 4 2 3 19 18 17 15 14 16 9 12 20 
0 11 6 5 4 1 17 18 15 14 16 7 9 20 
0 6 5 4 2 3 19 17 15 14 9 12 20 
0 11 6 5 4 2 3 19 17 15 14 9 20 
0 11 6 5 4 2 19 18 17 15 14 16 9 12 20 
0 11 6 5 4 2 19 18 17 16 15 14 9 10 12 20 
0 11 6 5 4 3 19 18 17 15 14 16 7 9 10 12 20 
0 6 5 4 2 3 19 18 17 15 14 16 9 12 20 
0 11 6 5 4 1 17 18 15 14 16 7 9 20 
0 11 6 5 4 2 3 19 17 15 14 9 20 
0 11 6 5 4 2 19 18 17 15 14 16 9 12 20 
0 6 5 4 2 3 19 17 15 14 9 12 20 
0 11 6 5 4 3 19 18 17 15 14 16 7 9 10 12 20 
0 6 5 4 2 3 19 18 17 15 14 16 9 12 20 
0 11 6 5 4 1 17 18 15 14 16 7 9 20 
0 6 5 4 2 3 19 17 15 14 9 12 20 
0 11 6 5 4 2 3 19 17 15 14 9 20 
0 11 6 5 4 2 19 18 17 15 14 16 9 12 20 
0 11 6 5 4 2 19 18 17 16 15 14 9 10 12 20 
0 11 6 5 4 2 3 19 18 17 15 14 9 10 12 20 
0 11 6 5 4 2 3 19 18 17 16 15 14 9 10 12 20 
0 11 6 5 4 1 17 18 15 14 16 7 9 20 
0 6 5 4 2 3 19 17 15 14 9 12 20 
0 11 6 5 4 2 3 19 17 15 14 9 20 
0 11 6 5 4 2 19 18 17 15 14 16 9 12 20 
0 11 6 5 4 2 19 18 17 16 15 14 9 10 12 20 
0 11 6 5 4 3 19 18 17 15 14 16 7 9 10 12 20 
0 6 5 4 2 3 19 18 17 15 14 16 9 12 20 
0 11 6 5 4 1 17 18 15 14 16 7 9 20 
0 6 5 4 2 3 19 17 15 14 9 12 20 
0 11 6 5 4 2 3 19 17 15 14 9 20 
0 11 6 5 4 2 19 18 17 15 14 16 9 12 20 
0 11 6 5 4 2 3 19 18 17 15 14 9 10 12 20 
0 11 6 5 4 2 3 19 18 17 16 15 14 9 10 12 20 
0 11 6 5 4 1 17 18 15 14 16 7 9 20 
0 6 5 4 2 3 19 17 15 14 9 12 20 
0 11 6 5 4 2 3 19 17 15 14 9 20 
0 11 6 5 4 2 19 18 17 15 14 16 9 12 20 
0 11 6 5 4 3 19 18 17 15 14 16 7 9 10 12 20 
0 6 5 4 2 3 19 18 17 15 14 16 9 12 20 
0 11 6 5 4 1 17 18 15 14 16 7 9 20 
0 6 5 4 2 3 19 17 15 14 9 12 20 
0 11 6 5 4 2 3 19 17 15 14 9 20 
0 11 6 5 4 3 19 18 17 15 14 16 7 9 10 12 20 
0 6 5 4 2 3 19 18 17 15 14 16 9 12 20 
0 11 6 5 4 1 17 18 15 14 16 7 9 20 
0 11 6 5 4 2 3 19 17 15 14 9 20 
0 6 5 4 2 3 19 17 15 14 9 12 20 
0 11 6 5 4 2 19 18 17 15 14 16 9 12 20 
0 11 6 5 4 2 3 19 18 17 15 14 9 10 12 20 
0 11 6 5 4 2 3 19 18 17 16 15 14 9 10 12 20 
